\ This file has been generated by DOcplex
\ ENCODING=ISO-8859-1
\Problem name: random_problem.lp

Minimize
 obj: 960 x0 + 480 x1 + 240 x2 + 1372 x3 + 686 x4 + 343 x5 + 168 x6 + 84 x7
      + 42 x8 + 1912 x9 + 956 x10 + 478 x11 + 764 x12 + 382 x13 + 191 x14
      + 2064 x15 + 1032 x16 + 516 x17 - 284 x18 - 142 x19 - 71 x20 + 2168 x21
      + 1084 x22 + 542 x23 + [ 28160 x0^2 + 28160 x0*x1 + 14080 x0*x2
      + 2624 x0*x3 + 1312 x0*x4 + 656 x0*x5 - 1344 x0*x6 - 672 x0*x7 - 336 x0*x8
      - 4800 x0*x9 - 2400 x0*x10 - 1200 x0*x11 + 2752 x0*x12 + 1376 x0*x13
      + 688 x0*x14 + 11136 x0*x15 + 5568 x0*x16 + 2784 x0*x17 + 256 x0*x18
      + 128 x0*x19 + 64 x0*x20 + 7488 x0*x21 + 3744 x0*x22 + 1872 x0*x23
      + 7040 x1^2 + 7040 x1*x2 + 1312 x1*x3 + 656 x1*x4 + 328 x1*x5 - 672 x1*x6
      - 336 x1*x7 - 168 x1*x8 - 2400 x1*x9 - 1200 x1*x10 - 600 x1*x11
      + 1376 x1*x12 + 688 x1*x13 + 344 x1*x14 + 5568 x1*x15 + 2784 x1*x16
      + 1392 x1*x17 + 128 x1*x18 + 64 x1*x19 + 32 x1*x20 + 3744 x1*x21
      + 1872 x1*x22 + 936 x1*x23 + 1760 x2^2 + 656 x2*x3 + 328 x2*x4 + 164 x2*x5
      - 336 x2*x6 - 168 x2*x7 - 84 x2*x8 - 1200 x2*x9 - 600 x2*x10 - 300 x2*x11
      + 688 x2*x12 + 344 x2*x13 + 172 x2*x14 + 2784 x2*x15 + 1392 x2*x16
      + 696 x2*x17 + 64 x2*x18 + 32 x2*x19 + 16 x2*x20 + 1872 x2*x21
      + 936 x2*x22 + 468 x2*x23 + 3200 x3^2 + 3200 x3*x4 + 1600 x3*x5
      + 2112 x3*x6 + 1056 x3*x7 + 528 x3*x8 + 704 x3*x9 + 352 x3*x10
      + 176 x3*x11 + 5056 x3*x12 + 2528 x3*x13 + 1264 x3*x14 - 512 x3*x15
      - 256 x3*x16 - 128 x3*x17 - 128 x3*x18 - 64 x3*x19 - 32 x3*x20
      + 4160 x3*x21 + 2080 x3*x22 + 1040 x3*x23 + 800 x4^2 + 800 x4*x5
      + 1056 x4*x6 + 528 x4*x7 + 264 x4*x8 + 352 x4*x9 + 176 x4*x10 + 88 x4*x11
      + 2528 x4*x12 + 1264 x4*x13 + 632 x4*x14 - 256 x4*x15 - 128 x4*x16
      - 64 x4*x17 - 64 x4*x18 - 32 x4*x19 - 16 x4*x20 + 2080 x4*x21
      + 1040 x4*x22 + 520 x4*x23 + 200 x5^2 + 528 x5*x6 + 264 x5*x7 + 132 x5*x8
      + 176 x5*x9 + 88 x5*x10 + 44 x5*x11 + 1264 x5*x12 + 632 x5*x13
      + 316 x5*x14 - 128 x5*x15 - 64 x5*x16 - 32 x5*x17 - 32 x5*x18 - 16 x5*x19
      - 8 x5*x20 + 1040 x5*x21 + 520 x5*x22 + 260 x5*x23 + 2880 x6^2
      + 2880 x6*x7 + 1440 x6*x8 + 1152 x6*x9 + 576 x6*x10 + 288 x6*x11
      - 576 x6*x12 - 288 x6*x13 - 144 x6*x14 + 4352 x6*x15 + 2176 x6*x16
      + 1088 x6*x17 - 128 x6*x18 - 64 x6*x19 - 32 x6*x20 + 512 x6*x21
      + 256 x6*x22 + 128 x6*x23 + 720 x7^2 + 720 x7*x8 + 576 x7*x9 + 288 x7*x10
      + 144 x7*x11 - 288 x7*x12 - 144 x7*x13 - 72 x7*x14 + 2176 x7*x15
      + 1088 x7*x16 + 544 x7*x17 - 64 x7*x18 - 32 x7*x19 - 16 x7*x20
      + 256 x7*x21 + 128 x7*x22 + 64 x7*x23 + 180 x8^2 + 288 x8*x9 + 144 x8*x10
      + 72 x8*x11 - 144 x8*x12 - 72 x8*x13 - 36 x8*x14 + 1088 x8*x15
      + 544 x8*x16 + 272 x8*x17 - 32 x8*x18 - 16 x8*x19 - 8 x8*x20 + 128 x8*x21
      + 64 x8*x22 + 32 x8*x23 + 6944 x9^2 + 6944 x9*x10 + 3472 x9*x11
      - 512 x9*x12 - 256 x9*x13 - 128 x9*x14 - 5824 x9*x15 - 2912 x9*x16
      - 1456 x9*x17 + 1152 x9*x18 + 576 x9*x19 + 288 x9*x20 + 2048 x9*x21
      + 1024 x9*x22 + 512 x9*x23 + 1736 x10^2 + 1736 x10*x11 - 256 x10*x12
      - 128 x10*x13 - 64 x10*x14 - 2912 x10*x15 - 1456 x10*x16 - 728 x10*x17
      + 576 x10*x18 + 288 x10*x19 + 144 x10*x20 + 1024 x10*x21 + 512 x10*x22
      + 256 x10*x23 + 434 x11^2 - 128 x11*x12 - 64 x11*x13 - 32 x11*x14
      - 1456 x11*x15 - 728 x11*x16 - 364 x11*x17 + 288 x11*x18 + 144 x11*x19
      + 72 x11*x20 + 512 x11*x21 + 256 x11*x22 + 128 x11*x23 + 6240 x12^2
      + 6240 x12*x13 + 3120 x12*x14 + 1472 x12*x15 + 736 x12*x16 + 368 x12*x17
      + 512 x12*x18 + 256 x12*x19 + 128 x12*x20 + 4672 x12*x21 + 2336 x12*x22
      + 1168 x12*x23 + 1560 x13^2 + 1560 x13*x14 + 736 x13*x15 + 368 x13*x16
      + 184 x13*x17 + 256 x13*x18 + 128 x13*x19 + 64 x13*x20 + 2336 x13*x21
      + 1168 x13*x22 + 584 x13*x23 + 390 x14^2 + 368 x14*x15 + 184 x14*x16
      + 92 x14*x17 + 128 x14*x18 + 64 x14*x19 + 32 x14*x20 + 1168 x14*x21
      + 584 x14*x22 + 292 x14*x23 + 17824 x15^2 + 17824 x15*x16 + 8912 x15*x17
      + 1920 x15*x18 + 960 x15*x19 + 480 x15*x20 + 7296 x15*x21 + 3648 x15*x22
      + 1824 x15*x23 + 4456 x16^2 + 4456 x16*x17 + 960 x16*x18 + 480 x16*x19
      + 240 x16*x20 + 3648 x16*x21 + 1824 x16*x22 + 912 x16*x23 + 1114 x17^2
      + 480 x17*x18 + 240 x17*x19 + 120 x17*x20 + 1824 x17*x21 + 912 x17*x22
      + 456 x17*x23 + 3008 x18^2 + 3008 x18*x19 + 1504 x18*x20 + 1600 x18*x21
      + 800 x18*x22 + 400 x18*x23 + 752 x19^2 + 752 x19*x20 + 800 x19*x21
      + 400 x19*x22 + 200 x19*x23 + 188 x20^2 + 400 x20*x21 + 200 x20*x22
      + 100 x20*x23 + 4416 x21^2 + 4416 x21*x22 + 2208 x21*x23 + 1104 x22^2
      + 1104 x22*x23 + 276 x23^2 ]/2
Subject To
 c0: 4 x0 + 2 x1 + x2 + 4 x3 + 2 x4 + x5 + 4 x6 + 2 x7 + x8 + 4 x9 + 2 x10 + x11
     + 4 x12 + 2 x13 + x14 + 4 x15 + 2 x16 + x17 + 4 x18 + 2 x19 + x20 + 4 x21
     + 2 x22 + x23 = 7

Bounds
 0 <= x0 <= 1
 0 <= x1 <= 1
 0 <= x2 <= 1
 0 <= x3 <= 1
 0 <= x4 <= 1
 0 <= x5 <= 1
 0 <= x6 <= 1
 0 <= x7 <= 1
 0 <= x8 <= 1
 0 <= x9 <= 1
 0 <= x10 <= 1
 0 <= x11 <= 1
 0 <= x12 <= 1
 0 <= x13 <= 1
 0 <= x14 <= 1
 0 <= x15 <= 1
 0 <= x16 <= 1
 0 <= x17 <= 1
 0 <= x18 <= 1
 0 <= x19 <= 1
 0 <= x20 <= 1
 0 <= x21 <= 1
 0 <= x22 <= 1
 0 <= x23 <= 1

Binaries
 x0 x1 x2 x3 x4 x5 x6 x7 x8 x9 x10 x11 x12 x13 x14 x15 x16 x17 x18 x19 x20 x21
 x22 x23
End
